p td 60 90
17 25
17 3
17 42
25 58
25 28
16 50
16 51
16 27
50 55
50 41
21 34
21 37
21 48
34 53
34 6
10 18
10 43
10 45
18 26
18 1
31 35
31 4
31 6
35 13
35 40
36 39
36 24
36 44
39 30
39 20
41 52
41 0
52 15
52 20
13 2
13 24
26 54
26 44
54 9
54 57
32 48
32 46
32 29
48 6
37 23
37 12
29 56
29 22
56 2
56 53
30 7
30 38
55 2
55 51
15 59
15 42
59 51
59 43
0 1
0 14
1 53
24 7
9 19
9 22
19 46
19 45
23 49
23 27
14 38
14 12
33 45
33 40
33 47
58 57
58 5
4 12
4 7
8 28
8 22
8 47
28 47
3 5
3 42
44 11
40 11
11 46
20 49
49 5
57 27
43 38
